solving instance uflp nldep gunluk ../../../../../instances/uflp/gunluk/gunluk-20-40-1.txt log
Set parameter TokenServer to value "licences.gerad.lan"
Set parameter MIPGap to value 1e-06
Set parameter FuncPieceError to value 1e-06
Set parameter Threads to value 1
Set parameter FuncPieces to value -2
Set parameter TimeLimit to value 3600
Gurobi Optimizer version 12.0.2 build v12.0.2rc0 (linux64 - "AlmaLinux 9.6 (Sage Margay)")

CPU model: Intel(R) Xeon(R) Gold 6258R CPU @ 2.70GHz, instruction set [SSE2|AVX|AVX2|AVX512]
Thread count: 56 physical cores, 56 logical processors, using up to 1 threads

Non-default parameters:
TimeLimit  3600
MIPGap  1e-06
Threads  1
FuncPieces  -2
FuncPieceError  1e-06

Optimize a model with 900 rows, 900 columns and 3300 nonzeros
Model fingerprint: 0xca8afcb2
Model has 20 function constraints treated as nonlinear
  20 LOG
Variable types: 880 continuous, 20 integer (20 binary)
Coefficient statistics:
  Matrix range     [9e-03, 1e+02]
  Objective range  [1e+00, 7e+01]
  Bounds range     [1e+00, 1e+10]
  RHS range        [1e+00, 1e+00]
Warning: Model contains large bounds
         Consider reformulating model or setting NumericFocus parameter
         to avoid numerical issues.
Warning: x < 1e-10 in domain of log(x).
         Setting lower bound to 1e-10.
Presolve removed 840 rows and 60 columns
Presolve time: 0.00s
Presolved: 160 rows, 841 columns, 1820 nonzeros
Presolved model has 20 nonlinear constraint(s)

Solving non-convex MINLP

Variable types: 841 continuous, 0 integer (0 binary)
Found heuristic solution: objective 397.0172358

Root relaxation: objective 3.051151e+02, 43 iterations, 0.00 seconds (0.00 work units)

    Nodes    |    Current Node    |     Objective Bounds      |     Work
 Expl Unexpl |  Obj  Depth IntInf | Incumbent    BestBd   Gap | It/Node Time

     0     0  305.11513    0   17  397.01724  305.11513  23.1%     -    0s
     0     0  305.62468    0   17  397.01724  305.62468  23.0%     -    0s
     0     2  305.62468    0   17  397.01724  305.62468  23.0%     -    0s
H  111    93                     397.0172351  320.55562  19.3%   1.9    0s
H  139   101                     397.0172343  324.37781  18.3%   2.1    0s
H  785   460                     396.7144068  369.74547  6.80%   2.1    1s
H 5907  1105                     396.6970146  387.66339  2.28%   1.6    3s
H 5907  1105                     396.6923834  387.66339  2.28%   1.6    3s
H 5907  1103                     396.6750889  387.66339  2.27%   1.6    3s
H 6904  1124                     396.6750873  388.84318  1.97%   1.6    4s
  8690   988  392.34512  106   12  396.67509  391.02278  1.42%   1.7    5s

Explored 14375 nodes (24754 simplex iterations) in 7.79 seconds (3.13 work units)
Thread count was 1 (of 56 available processors)

Solution count 5: 396.675 396.692 396.697 ... 397.017

Optimal solution found (tolerance 1.00e-06)
Best objective 3.966750873380e+02, best bound 3.966750873380e+02, gap 0.0000%

User-callback calls 29384, time in user-callback 0.01 sec
Generating Gunluk and Lee data file ../../../../../instances/uflp/gunluk/gunluk-20-40-1.txt
primal_bound = 396.67508733800344, dual_bound = 396.6750873380033, gap = 2.865993891487933e-14, time = 7.8
OPTIMAL LOCATIONS:
y[1] = 1.0
y[2] = 1.0
y[3] = 1.0
y[4] = 1.0
y[5] = 1.0
y[6] = 1.0
y[7] = 1.0
y[8] = 1.0
y[9] = 1.0
y[10] = 1.0
y[11] = 1.0
y[12] = 1.0
y[13] = 1.0
y[14] = 1.0
y[15] = 1.0
y[16] = 1.0
y[17] = 1.0
y[18] = 1.0
y[19] = 1.0
y[20] = 1.0
OPTIMAL WAREHOUSING:
f[3] = 409.0
f[4] = 299.0
f[5] = 145.0
f[6] = 6.0
f[8] = 367.0
f[9] = 1.0
f[10] = 492.0
f[11] = 305.0
f[13] = 127.0
f[16] = 6.0
f[17] = 73.0
OPTIMAL WAREHOUSING COSTS:
nlobj[1] = 0.0
nlobj[2] = 0.0
nlobj[3] = 6.016700819491662
nlobj[4] = 1.2694803045665255
nlobj[5] = 1.8828052005629352
nlobj[6] = 1.6358170121978328
nlobj[7] = 0.0
nlobj[8] = 3.3155102009264725
nlobj[9] = 0.22441582919213357
nlobj[10] = 11.004889394298745
nlobj[11] = 17.11740656108131
nlobj[12] = 0.0
nlobj[13] = 8.337888936081448
nlobj[14] = 0.0
nlobj[15] = 0.0
nlobj[16] = 1.6191309013882227
nlobj[17] = 7.765891235224165
nlobj[18] = 0.0
nlobj[19] = 0.0
nlobj[20] = 0.0
OPTIMAL ASSIGNMENTS:
x[3, 2] = 1.0
x[3, 4] = 1.0
x[3, 5] = 1.0
x[3, 10] = 1.0
x[3, 22] = 1.0
x[3, 33] = 1.0
x[4, 3] = 1.0
x[4, 28] = 1.0
x[4, 30] = 1.0
x[4, 40] = 1.0
x[5, 23] = 1.0
x[5, 34] = 1.0
x[6, 15] = 1.0
x[8, 8] = 1.0
x[8, 11] = 1.0
x[8, 14] = 1.0
x[8, 18] = 1.0
x[8, 20] = 1.0
x[8, 31] = 1.0
x[8, 39] = 1.0
x[9, 13] = 1.0
x[10, 7] = 1.0
x[10, 16] = 1.0
x[10, 17] = 1.0
x[10, 21] = 1.0
x[10, 27] = 1.0
x[10, 36] = 1.0
x[10, 37] = 1.0
x[10, 38] = 1.0
x[11, 6] = 1.0
x[11, 9] = 1.0
x[11, 12] = 1.0
x[11, 19] = 1.0
x[11, 35] = 1.0
x[13, 25] = 1.0
x[13, 26] = 1.0
x[13, 32] = 1.0
x[16, 29] = 1.0
x[17, 1] = 1.0
x[17, 24] = 1.0
fixed costs = 1110.0
assignment costs = 336.485150942992
warehousing costs = 60.18993639501145
total cost = 396.67508733800344
